(set-info :smt-lib-version 2.7)
(set-logic QF_SNIA)
(set-info :source  | 
Generated by: Johannes Bauer
Generated on: 2026-06-21
Generator: mgm A12 Test Data Generator
Application: ELSTER
Target solver: Z3, CVC5
Script is based on the ELSTER form: capital gains tax registration (A / KapEStInvStG)
Characteristic of the form: easy.
In this script, all terms of the form (* x1 x2 x3 ...) are in the form (* x1 c2 c3 ...),
all terms of the form (div x y) are in the form (div x c) and the symbol mod is exclusively used in the form (mod x c),
where x, y, and x1, x2, x3 ... are free constants and c, c2, c3 ... are terms in the form n or (-n) for some numeral n.
The script starts with the base constraints, which define a valid data set for the corresponding form. After the first (push 1), control constraints follow.
The goal of the control constraints in this script is to fill up a data set with values, after the characteristics of the high test coverage were placed.
number variables: 156, number constraints: 166
"https://www.elster.de/eportal/start?locale=en_US"
"https://www.mgm-tp.com/q12-tdg.html"
"https://a12.ai/public-sector"
|)
(set-info :license "https://creativecommons.org/licenses/by/4.0/")
(set-info :category "industrial")
(set-info :major-phase |variable declarations|)
(declare-fun S1-S () String)
(declare-fun S2-S () String)
(declare-fun B3-F () Bool)
(declare-fun S3-S () String)
(declare-fun B4-F () Bool)
(declare-fun B5-F () Bool)
(declare-fun B6-F () Bool)
(declare-fun B7-F () Bool)
(declare-fun I7-y () Int)
(declare-fun B8-F () Bool)
(declare-fun S8-S () String)
(declare-fun B9-F () Bool)
(declare-fun S10-S () String)
(declare-fun I11-y () Int)
(declare-fun I11-m () Int)
(declare-fun I11-d () Int)
(declare-fun I12-y () Int)
(declare-fun I12-m () Int)
(declare-fun I12-d () Int)
(declare-fun I13 () Int)
(declare-fun I14 () Int)
(declare-fun I15 () Int)
(declare-fun I16 () Int)
(declare-fun I17 () Int)
(declare-fun I18 () Int)
(declare-fun I19 () Int)
(declare-fun I20 () Int)
(declare-fun I21-s-y () Int)
(declare-fun I21-s-m () Int)
(declare-fun I21-s-d () Int)
(declare-fun I21-e-y () Int)
(declare-fun I21-e-m () Int)
(declare-fun I21-e-d () Int)
(declare-fun I22-y () Int)
(declare-fun I22-m () Int)
(declare-fun I22-d () Int)
(declare-fun I23-y () Int)
(declare-fun I23-m () Int)
(declare-fun I23-d () Int)
(declare-fun I24 () Int)
(declare-fun I25 () Int)
(declare-fun I26 () Int)
(declare-fun B27-F () Bool)
(declare-fun B28-F () Bool)
(declare-fun B29-F () Bool)
(declare-fun I29 () Int)
(declare-fun B30-F () Bool)
(declare-fun I30 () Int)
(declare-fun B31-F () Bool)
(declare-fun I31 () Int)
(declare-fun I32 () Int)
(declare-fun I33 () Int)
(declare-fun I34 () Int)
(declare-fun I35-s-y () Int)
(declare-fun I35-s-m () Int)
(declare-fun I35-s-d () Int)
(declare-fun I35-e-y () Int)
(declare-fun I35-e-m () Int)
(declare-fun I35-e-d () Int)
(declare-fun I36 () Int)
(declare-fun I37 () Int)
(declare-fun I38 () Int)
(declare-fun I39 () Int)
(declare-fun I40 () Int)
(declare-fun I41 () Int)
(declare-fun I42 () Int)
(declare-fun I43 () Int)
(declare-fun I44 () Int)
(declare-fun S45-S () String)
(declare-fun I46-y () Int)
(declare-fun I46-m () Int)
(declare-fun I46-d () Int)
(declare-fun B47-F () Bool)
(declare-fun I47-y () Int)
(declare-fun I47-m () Int)
(declare-fun I47-d () Int)
(declare-fun B48-F () Bool)
(declare-fun I48-y () Int)
(declare-fun I48-m () Int)
(declare-fun I48-d () Int)
(declare-fun B49-F () Bool)
(declare-fun B50-F () Bool)
(declare-fun B51-F () Bool)
(declare-fun B52-F () Bool)
(declare-fun I52 () Int)
(declare-fun B53-F () Bool)
(declare-fun I53 () Int)
(declare-fun I54 () Int)
(declare-fun I55 () Int)
(declare-fun I56 () Int)
(declare-fun I57 () Int)
(declare-fun I58 () Int)
(declare-fun I59 () Int)
(declare-fun I60 () Int)
(declare-fun I61 () Int)
(declare-fun I62 () Int)
(declare-fun I63 () Int)
(declare-fun I64 () Int)
(declare-fun I65 () Int)
(declare-fun I66 () Int)
(declare-fun I67 () Int)
(declare-fun I68 () Int)
(declare-fun I69 () Int)
(declare-fun I70 () Int)
(declare-fun I71 () Int)
(declare-fun B72-F () Bool)
(declare-fun I73 () Int)
(declare-fun I74 () Int)
(declare-fun B75-F () Bool)
(declare-fun I75-y () Int)
(declare-fun I75-m () Int)
(declare-fun I75-d () Int)
(declare-fun B76-F () Bool)
(declare-fun B77-F () Bool)
(declare-fun I77 () Int)
(declare-fun B78-F () Bool)
(declare-fun I78 () Int)
(declare-fun B79-F () Bool)
(declare-fun B80-F () Bool)
(declare-fun I80 () Int)
(declare-fun B81-F () Bool)
(declare-fun I81 () Int)
(declare-fun B82-F () Bool)
(declare-fun I82 () Int)
(declare-fun B83-F () Bool)
(declare-fun I83 () Int)
(declare-fun B84-F () Bool)
(declare-fun I84 () Int)
(declare-fun B85-F () Bool)
(declare-fun I85 () Int)
(declare-fun B86-F () Bool)
(declare-fun I86 () Int)
(declare-fun B87-F () Bool)
(declare-fun I87 () Int)
(declare-fun B88-F () Bool)
(declare-fun I88 () Int)
(declare-fun B89-F () Bool)
(declare-fun I89 () Int)
(declare-fun B90-F () Bool)
(declare-fun B91-F () Bool)
(declare-fun I91 () Int)
(declare-fun B92-F () Bool)
(declare-fun B93-F () Bool)
(declare-fun B94-F () Bool)
(declare-fun I95 () Int)
(declare-fun B96-F () Bool)
(declare-fun B97-F () Bool)
(declare-fun B98-F () Bool)
(declare-fun B99-F () Bool)
(declare-fun B100-F () Bool)
(declare-fun B101-F () Bool)
(declare-fun B102-F () Bool)
(declare-fun B103-F () Bool)
(declare-fun B104-F () Bool)
(declare-fun B105-F () Bool)
(declare-fun B106-F () Bool)
(set-info :major-phase |base constraints|)
(set-info :base-constraint-type |constraints defining hierarchy (group is filled, if a child is filled)|)
(assert (not (or B75-F B76-F)))
(assert (= B76-F (or B77-F B78-F)))
(assert (= B96-F (or B97-F B98-F)))
(assert B72-F)
(assert (= B49-F (or B50-F B51-F B52-F B53-F)))
(assert (= B27-F (or B28-F B29-F B30-F B31-F)))
(assert (= B99-F (or B100-F B101-F)))
(assert (= B101-F (or B102-F B103-F B104-F B105-F)))
(assert (or B79-F B80-F B81-F B82-F B83-F B84-F B85-F B86-F B87-F B88-F B89-F B90-F B91-F B92-F B93-F))
(set-info :base-constraint-type |domainconstraints number-fields|)
(assert (ite B77-F (and (<= I77 999999999999) (>= I77 0)) (= I77 0)))
(assert (ite B78-F (and (<= I78 999999999999) (>= I78 0)) (= I78 0)))
(assert (and (<= I73 999999999999) (>= I73 (- 999999999999))))
(assert (and (<= I74 99999999999999) (>= I74 (- 99999999999999))))
(assert (and (<= I13 999999999999) (>= I13 (- 999999999999))))
(assert (and (<= I14 999999999999) (>= I14 (- 999999999999))))
(assert (and (<= I15 99999999999999) (>= I15 (- 99999999999999))))
(assert (and (<= I16 999999999999) (>= I16 (- 999999999999))))
(assert (and (<= I17 999999999999) (>= I17 (- 999999999999))))
(assert (and (<= I18 99999999999999) (>= I18 (- 99999999999999))))
(assert (and (<= I19 999999999999) (>= I19 (- 999999999999))))
(assert (and (<= I20 99999999999999) (>= I20 (- 99999999999999))))
(assert (ite B51-F true false))
(assert (ite B52-F (and (<= I52 999999999999) (>= I52 (- 999999999999))) (= I52 0)))
(assert (ite B53-F (and (<= I53 99999999999999) (>= I53 (- 99999999999999))) (= I53 0)))
(assert (and (<= I54 999999999999) (>= I54 (- 999999999999))))
(assert (and (<= I55 999999999999) (>= I55 (- 999999999999))))
(assert (and (<= I56 99999999999999) (>= I56 (- 99999999999999))))
(assert (and (<= I57 999999999999) (>= I57 (- 999999999999))))
(assert (and (<= I58 999999999999) (>= I58 (- 999999999999))))
(assert (and (<= I59 99999999999999) (>= I59 (- 99999999999999))))
(assert (= I60 0))
(assert (= I61 0))
(assert (= I62 0))
(assert (= I63 0))
(assert (= I64 0))
(assert (= I65 0))
(assert (= I66 0))
(assert (= I67 0))
(assert (= I68 0))
(assert (= I69 0))
(assert (= I70 0))
(assert (= I71 0))
(assert (and (<= I24 999999999999) (>= I24 (- 999999999999))))
(assert (and (<= I25 999999999999) (>= I25 (- 999999999999))))
(assert (and (<= I26 99999999999999) (>= I26 (- 99999999999999))))
(assert (ite B29-F (and (<= I29 999999999999) (>= I29 (- 999999999999))) (= I29 0)))
(assert (ite B30-F (and (<= I30 999999999999) (>= I30 (- 999999999999))) (= I30 0)))
(assert (ite B31-F (and (<= I31 99999999999999) (>= I31 (- 99999999999999))) (= I31 0)))
(assert (and (<= I32 999999999999) (>= I32 (- 999999999999))))
(assert (and (<= I33 999999999999) (>= I33 (- 999999999999))))
(assert (and (<= I34 99999999999999) (>= I34 (- 99999999999999))))
(assert (= I36 0))
(assert (= I37 0))
(assert (= I38 0))
(assert (= I39 0))
(assert (= I40 0))
(assert (= I41 0))
(assert (= I42 0))
(assert (= I43 0))
(assert (= I44 0))
(assert (ite B81-F (and (<= I81 99999999999999) (>= I81 (- 9999999999999))) (= I81 0)))
(assert (ite B80-F (and (<= I80 99999999999999) (>= I80 (- 9999999999999))) (= I80 0)))
(assert (ite B79-F true false))
(assert (ite B82-F (and (<= I82 99999999999999) (>= I82 (- 9999999999999))) (= I82 0)))
(assert (ite B84-F (and (<= I84 99999999999999) (>= I84 (- 9999999999999))) (= I84 0)))
(assert (ite B83-F (and (<= I83 99999999999999) (>= I83 (- 9999999999999))) (= I83 0)))
(assert (ite B85-F (and (<= I85 99999999999999) (>= I85 (- 9999999999999))) (= I85 0)))
(assert (ite B86-F (and (<= I86 99999999999999) (>= I86 (- 9999999999999))) (= I86 0)))
(assert (ite B87-F (and (<= I87 99999999999999) (>= I87 (- 9999999999999))) (= I87 0)))
(assert (ite B91-F (and (<= I91 99999999999999) (>= I91 (- 9999999999999))) (= I91 0)))
(assert (ite B88-F (and (<= I88 99999999999999) (>= I88 (- 9999999999999))) (= I88 0)))
(assert (ite B89-F (and (<= I89 99999999999999) (>= I89 (- 9999999999999))) (= I89 0)))
(assert (ite B90-F true false))
(assert (ite B92-F true false))
(assert (ite B93-F true false))
(assert (ite B94-F (and (<= I95 99999999999999) (>= I95 (- 9999999999999))) (= I95 0)))
(set-info :base-constraint-type |domainconstraints date-fields|)
(assert (and (ite B75-F (and (> I75-y 1900) (< I75-y 2100)) (= I75-y 0)) (ite B75-F (and (> I75-m 0) (<= I75-m 12)) (= I75-m 0)) (ite B75-F (and (> I75-d 0) (<= I75-d (ite (or (= I75-m 0) (= I75-m 1) (= I75-m 3) (= I75-m 5) (= I75-m 7) (= I75-m 8) (= I75-m 10) (= I75-m 12)) 31 (ite (or (= I75-m 4) (= I75-m 6) (= I75-m 9) (= I75-m 11)) 30 (ite (= (mod I75-y 4) 0) 29 28))))) (= I75-d 0))))
(assert (ite B7-F (and (> I7-y 1900) (< I7-y 2100)) (= I7-y 0)))
(assert (and (> I12-y 1900) (< I12-y 2100) (> I12-m 0) (<= I12-m 12) (> I12-d 0) (<= I12-d (ite (or (= I12-m 0) (= I12-m 1) (= I12-m 3) (= I12-m 5) (= I12-m 7) (= I12-m 8) (= I12-m 10) (= I12-m 12)) 31 (ite (or (= I12-m 4) (= I12-m 6) (= I12-m 9) (= I12-m 11)) 30 (ite (= (mod I12-y 4) 0) 29 28))))))
(assert (and (> I11-y 1900) (< I11-y 2100) (> I11-m 0) (<= I11-m 12) (> I11-d 0) (<= I11-d (ite (or (= I11-m 0) (= I11-m 1) (= I11-m 3) (= I11-m 5) (= I11-m 7) (= I11-m 8) (= I11-m 10) (= I11-m 12)) 31 (ite (or (= I11-m 4) (= I11-m 6) (= I11-m 9) (= I11-m 11)) 30 (ite (= (mod I11-y 4) 0) 29 28))))))
(assert (and (ite B47-F (and (> I47-y 1900) (< I47-y 2100)) (= I47-y 0)) (ite B47-F (and (> I47-m 0) (<= I47-m 12)) (= I47-m 0)) (ite B47-F (and (> I47-d 0) (<= I47-d (ite (or (= I47-m 0) (= I47-m 1) (= I47-m 3) (= I47-m 5) (= I47-m 7) (= I47-m 8) (= I47-m 10) (= I47-m 12)) 31 (ite (or (= I47-m 4) (= I47-m 6) (= I47-m 9) (= I47-m 11)) 30 (ite (= (mod I47-y 4) 0) 29 28))))) (= I47-d 0))))
(assert (and (> I46-y 1900) (< I46-y 2100) (> I46-m 0) (<= I46-m 12) (> I46-d 0) (<= I46-d (ite (or (= I46-m 0) (= I46-m 1) (= I46-m 3) (= I46-m 5) (= I46-m 7) (= I46-m 8) (= I46-m 10) (= I46-m 12)) 31 (ite (or (= I46-m 4) (= I46-m 6) (= I46-m 9) (= I46-m 11)) 30 (ite (= (mod I46-y 4) 0) 29 28))))))
(assert (and (ite B48-F (and (> I48-y 1900) (< I48-y 2100)) (= I48-y 0)) (ite B48-F (and (> I48-m 0) (<= I48-m 12)) (= I48-m 0)) (ite B48-F (and (> I48-d 0) (<= I48-d (ite (or (= I48-m 0) (= I48-m 1) (= I48-m 3) (= I48-m 5) (= I48-m 7) (= I48-m 8) (= I48-m 10) (= I48-m 12)) 31 (ite (or (= I48-m 4) (= I48-m 6) (= I48-m 9) (= I48-m 11)) 30 (ite (= (mod I48-y 4) 0) 29 28))))) (= I48-d 0))))
(assert (and (> I23-y 1900) (< I23-y 2100) (> I23-m 0) (<= I23-m 12) (> I23-d 0) (<= I23-d (ite (or (= I23-m 0) (= I23-m 1) (= I23-m 3) (= I23-m 5) (= I23-m 7) (= I23-m 8) (= I23-m 10) (= I23-m 12)) 31 (ite (or (= I23-m 4) (= I23-m 6) (= I23-m 9) (= I23-m 11)) 30 (ite (= (mod I23-y 4) 0) 29 28))))))
(assert (and (> I22-y 1900) (< I22-y 2100) (> I22-m 0) (<= I22-m 12) (> I22-d 0) (<= I22-d (ite (or (= I22-m 0) (= I22-m 1) (= I22-m 3) (= I22-m 5) (= I22-m 7) (= I22-m 8) (= I22-m 10) (= I22-m 12)) 31 (ite (or (= I22-m 4) (= I22-m 6) (= I22-m 9) (= I22-m 11)) 30 (ite (= (mod I22-y 4) 0) 29 28))))))
(assert (or (< I21-s-y I21-e-y) (and (= I21-s-y I21-e-y) (< I21-s-m I21-e-m)) (and (= I21-s-y I21-e-y) (= I21-s-m I21-e-m) (<= I21-s-d I21-e-d))))
(assert (and (>= I21-e-d 1) (<= I21-e-d (ite (or (= I21-e-m 0) (= I21-e-m 1) (= I21-e-m 3) (= I21-e-m 5) (= I21-e-m 7) (= I21-e-m 8) (= I21-e-m 10) (= I21-e-m 12)) 31 (ite (or (= I21-e-m 4) (= I21-e-m 6) (= I21-e-m 9) (= I21-e-m 11)) 30 (ite (= (mod I21-e-y 4) 0) 29 28))))))
(assert (and (>= I21-e-m 1) (<= I21-e-m 12)))
(assert (and (>= I21-e-y 1901) (<= I21-e-y 2099)))
(assert (and (>= I21-s-d 1) (<= I21-s-d (ite (or (= I21-s-m 0) (= I21-s-m 1) (= I21-s-m 3) (= I21-s-m 5) (= I21-s-m 7) (= I21-s-m 8) (= I21-s-m 10) (= I21-s-m 12)) 31 (ite (or (= I21-s-m 4) (= I21-s-m 6) (= I21-s-m 9) (= I21-s-m 11)) 30 (ite (= (mod I21-s-y 4) 0) 29 28))))))
(assert (and (>= I21-s-m 1) (<= I21-s-m 12)))
(assert (and (>= I21-s-y 1901) (<= I21-s-y 2099)))
(assert (or (< I35-s-y I35-e-y) (and (= I35-s-y I35-e-y) (< I35-s-m I35-e-m)) (and (= I35-s-y I35-e-y) (= I35-s-m I35-e-m) (<= I35-s-d I35-e-d))))
(set-info :base-constraint-type |constraints for date-strategy|)
(assert (and (> (str.to_int S10-S) 1900) (< (str.to_int S10-S) 2100)))
(assert (and (> (str.to_int S10-S) 1900) (< (str.to_int S10-S) 2100)))
(set-info :base-constraint-type |domainconstraints string fields|)
(assert (and (str.in_re S10-S (re.+ (re.range "0" "9"))) (>= (str.len S10-S) 4) (<= (str.len S10-S) 4)))
(assert (and (str.in_re S45-S (re.+ (re.range "0" "9"))) (>= (str.len S45-S) 4) (<= (str.len S45-S) 4)))
(set-info :base-constraint-type |domainconstraints index-based string fields|)
(assert (or (= S2-S "0") (= S2-S "1")))
(assert (ite B8-F (or (= S8-S "11") (= S8-S "01") (= S8-S "12") (= S8-S "02") (= S8-S "03") (= S8-S "04") (= S8-S "05") (= S8-S "06") (= S8-S "07") (= S8-S "08") (= S8-S "09") (= S8-S "10")) (= S8-S "")))
(assert (or (= S1-S "2216060427666") (= S1-S "2815094023008") (= S1-S "1060048649864") (= S1-S "2348008413417") (= S1-S "2702024686052") (= S1-S "3207051220872") (= S1-S "1123012960769") (= S1-S "5103096558745") (= S1-S "2632041436639") (= S1-S "3103071321727") (= S1-S "3062087900803") (= S1-S "9170050074951") (= S1-S "4084068125545") (= S1-S "2460083378687") (= S1-S "2189063488000")))
(assert (ite B3-F (or (= S3-S "2216060427666") (= S3-S "2815094023008") (= S3-S "1060048649864") (= S3-S "2348008413417") (= S3-S "2702024686052") (= S3-S "3207051220872") (= S3-S "1123012960769") (= S3-S "5103096558745") (= S3-S "2632041436639") (= S3-S "3103071321727") (= S3-S "3062087900803") (= S3-S "9170050074951") (= S3-S "4084068125545") (= S3-S "2460083378687") (= S3-S "2189063488000")) (= S3-S "")))
(set-info :base-constraint-type |constraints, guarding filling of calculations|)
(assert B94-F)
(set-info :base-constraint-type |constraints from validation-rules|)
(assert (not (and B78-F B77-F (distinct I77 0) (distinct I78 (div (* I77 15) 100)))))
(assert (not (and B75-F (or (< I75-y 2025) (> I75-y 2025)))))
(assert (not (and (or B98-F B97-F) (not (and B98-F B97-F)))))
(assert (not (and (not B79-F) (not B80-F) (not B81-F) (not B82-F) (not B83-F) (not B84-F) (not B85-F) (not B86-F) (not B87-F) (not B88-F) (not B89-F) (not B90-F) (not B91-F) (not B92-F) (not B93-F) (not B94-F))))
(assert (not (distinct I73 (+ I14 I17 (- 999999999999) I25 I30 I33 I37 I40 I43 I52 I55 I58 I61 I64 I67 I70))))
(assert (not (distinct I74 (+ I15 I18 I20 I26 I31 I34 I38 I41 I44 I53 I56 I59 I62 I65 I68 I71))))
(assert (not (and B7-F (or (< I7-y 2025) (> I7-y 2025)))))
(assert (not (or (> I12-y I11-y) (and (= I12-y I11-y) (> I12-m I11-m)) (and (= I12-y I11-y) (= I12-m I11-m) (> I12-d I11-d)))))
(assert (not (or (distinct I11-y (ite B7-F I7-y 0)) (distinct I11-m (str.to_int (ite B8-F S8-S ""))))))
(assert (not (>= (ite (and (>= (str.to_int S10-S) 1) (<= (str.to_int S10-S) 9999)) (+ (- I12-y (str.to_int S10-S)) (ite (or (< (str.to_int S10-S) I12-y) (and (= (str.to_int S10-S) I12-y) (< 5 I12-m)) (and (= (str.to_int S10-S) I12-y) (= 5 I12-m) (< 1 I12-d)) (and (= (str.to_int S10-S) I12-y) (= 5 I12-m) (= 1 I12-d))) (ite (or (< 5 I12-m) (and (= 5 I12-m) (<= 1 I12-d))) 0 (- 1)) (ite (or (> 5 I12-m) (and (= 5 I12-m) (>= 1 I12-d))) 0 1))) 0) 1)))
(assert (not (< I11-y (str.to_int (str.substr S10-S 0 4)))))
(assert (not (> (str.to_int (str.substr S10-S 0 4)) 2025)))
(assert (not (or (and (distinct I13 0) (= I14 0)) (and (distinct I16 0) (= I17 0)))))
(assert (not (> (ite (>= (- I15 (div (* I14 55) 10)) 0) (- I15 (div (* I14 55) 10)) (- (- I15 (div (* I14 55) 10)))) 100)))
(assert (not (or (> (* I14 100) (+ (* I13 15) 100)) (> (* I17 100) (+ (* I16 15) 100)) (> (- 99999999999900) (+ (* I19 15) 100)))))
(assert (not (> (ite (>= (- I18 (div (* I17 55) 10)) 0) (- I18 (div (* I17 55) 10)) (- (- I18 (div (* I17 55) 10)))) 100)))
(assert (not (> (ite (>= (- I20 (- 5499999999995)) 0) (- I20 (- 5499999999995)) (- (- I20 (- 5499999999995)))) 100)))
(assert (not (and B47-F (not B48-F))))
(assert (not (and B47-F (or (< I47-y I46-y) (and (= I47-y I46-y) (< I47-m I46-m)) (and (= I47-y I46-y) (= I47-m I46-m) (< I47-d I46-d)) (and (= I47-y I46-y) (= I47-m I46-m) (= I47-d I46-d))))))
(assert (not (and B47-F (< I47-y (str.to_int (str.substr S45-S 0 4))))))
(assert (not (and B47-F B48-F (or (< I47-y I48-y) (and (= I47-y I48-y) (< I47-m I48-m)) (and (= I47-y I48-y) (= I47-m I48-m) (< I47-d I48-d))))))
(assert (not (and B47-F (or (< I47-y (ite B7-F I7-y 0)) (and (= I47-y (ite B7-F I7-y 0)) (< I47-m (str.to_int (ite B8-F S8-S ""))))))))
(assert (not (and B48-F (< I48-y 2023))))
(assert (not (distinct I46-y (str.to_int (str.substr S45-S 0 4)))))
(assert (not (or (> I46-y (ite B7-F I7-y 0)) (and (= I46-y (ite B7-F I7-y 0)) (> I46-m (str.to_int (ite B8-F S8-S "")))))))
(assert (not (> (str.to_int (str.substr S45-S 0 4)) 2025)))
(assert (not (or (and (or (< I46-y 2022) (and (= I46-y 2022) (< I46-m 10)) (and (= I46-y 2022) (= I46-m 10) (< I46-d 1))) (< (str.to_int (str.substr S45-S 0 4)) 2025)) (and (or (> I46-y 2022) (and (= I46-y 2022) (> I46-m 10)) (and (= I46-y 2022) (= I46-m 10) (> I46-d 1)) (and (= I46-y 2022) (= I46-m 10) (= I46-d 1))) (or (and (< (str.to_int (str.substr S45-S 0 4)) 2025) (= (str.to_int (str.substr S45-S 0 4)) 2024) (>= (str.to_int (ite B8-F S8-S "")) 5) (<= (str.to_int (ite B8-F S8-S "")) 12)) (and (< (str.to_int (str.substr S45-S 0 4)) 2025) (distinct (str.to_int (str.substr S45-S 0 4)) 2024)))))))
(assert (not (or (and (= I46-y (ite B7-F I7-y 0)) (< I46-m (- (str.to_int (ite B8-F S8-S "")) 4))) (and (distinct I46-y (ite B7-F I7-y 0)) (< I46-y (- (ite B7-F I7-y 0) 1))) (and (distinct I46-y (ite B7-F I7-y 0)) (= I46-y (- (ite B7-F I7-y 0) 1)) (> I46-m 8) (< I46-m (- (+ (str.to_int (ite B8-F S8-S "")) 12) 4))) (and (distinct I46-y (ite B7-F I7-y 0)) (= I46-y (- (ite B7-F I7-y 0) 1)) (<= I46-m 8)))))
(assert (not (or (= I52 0) (and (distinct I54 0) (= I55 0)) (and (distinct I57 0) (= I58 0)))))
(assert (not (and B52-F B53-F (> (ite (>= (- I53 (div (* I52 55) 10)) 0) (- I53 (div (* I52 55) 10)) (- (- I53 (div (* I52 55) 10)))) 100))))
(assert (not (and (or B50-F B51-F B52-F B53-F) (not (and B50-F B51-F B52-F B53-F)))))
(assert (not (or (> (* I52 100) (- 14999999999885)) (> (* I55 100) (+ (* I54 15) 100)) (> (* I58 100) (+ (* I57 15) 100)))))
(assert (not (> (ite (>= (- I56 (div (* I55 55) 10)) 0) (- I56 (div (* I55 55) 10)) (- (- I56 (div (* I55 55) 10)))) 100)))
(assert (not (> (ite (>= (- I59 (div (* I58 55) 10)) 0) (- I59 (div (* I58 55) 10)) (- (- I59 (div (* I58 55) 10)))) 100)))
(assert (not (or (> I23-y I22-y) (and (= I23-y I22-y) (> I23-m I22-m)) (and (= I23-y I22-y) (= I23-m I22-m) (> I23-d I22-d)))))
(assert (not (or (distinct I22-y (ite B7-F I7-y 0)) (distinct I22-m (str.to_int (ite B8-F S8-S ""))))))
(assert (not (< I22-y 2025)))
(assert (not (or (and (distinct I24 0) (= I25 0)) (and (distinct I29 0) (= I30 0)) (and (distinct I32 0) (= I33 0)))))
(assert (not (> (ite (>= (- I26 (div (* I25 55) 10)) 0) (- I26 (div (* I25 55) 10)) (- (- I26 (div (* I25 55) 10)))) 100)))
(assert (not (or (> (* I25 100) (+ (* I24 15) 100)) (> (* I30 100) (+ (* I29 15) 100)) (> (* I33 100) (+ (* I32 15) 100)))))
(assert (not (and B30-F B31-F (> (ite (>= (- I31 (div (* I30 55) 10)) 0) (- I31 (div (* I30 55) 10)) (- (- I31 (div (* I30 55) 10)))) 100))))
(assert (not (and (or B28-F B29-F B30-F B31-F) (not (and B28-F B29-F B30-F B31-F)))))
(assert (not (> (ite (>= (- I34 (div (* I33 55) 10)) 0) (- I34 (div (* I33 55) 10)) (- (- I34 (div (* I33 55) 10)))) 100)))
(assert (not (or (> I21-e-y I22-y) (and (= I21-e-y I22-y) (> I21-e-m I22-m)) (and (= I21-e-y I22-y) (= I21-e-m I22-m) (> I21-e-d I22-d)))))
(assert (not (or (< I21-s-y (- I21-e-y 1)) (and (= I21-s-y (- I21-e-y 1)) (< I21-s-m I21-e-m)) (and (= I21-s-y (- I21-e-y 1)) (= I21-s-m I21-e-m) (< I21-s-d (+ I21-e-d 1))))))
(assert (not B75-F))
(assert (and B7-F B8-F))
(assert (not (and B7-F B8-F (or (< 2026 I7-y) (and (= 2026 I7-y) (<= 6 (str.to_int S8-S)))))))
(assert (not (and B7-F B8-F (or (< 2027 I7-y) (and (= 2027 I7-y) (<= 6 (str.to_int S8-S)))))))
(assert (not (and B100-F (not (and B102-F B103-F)))))
(assert (not (and (not B100-F) (or B102-F B103-F))))
(assert (not (and B3-F (= S2-S "0"))))
(assert (not (and B3-F (= S3-S S1-S))))
(assert (not (and (or B81-F B80-F B82-F B79-F B83-F B84-F B85-F B86-F B93-F B87-F B90-F B91-F B88-F B89-F B92-F) (not B94-F))))
(assert (not (and B94-F (or B81-F B80-F B82-F B79-F B83-F B84-F B85-F B86-F B93-F B87-F B90-F B91-F B88-F B89-F B92-F) (distinct I95 (+ I81 I80 I82 I83 I84 I85 I86 I87 I91 I88 I89 99996852931109)))))
(assert (not (and B94-F (not B81-F) (not B80-F) (not B82-F) (not B79-F) (not B83-F) (not B84-F) (not B85-F) (not B86-F) (not B93-F) (not B87-F) (not B90-F) (not B91-F) (not B88-F) (not B89-F) (not B92-F))))
(assert (not (and B94-F (distinct I95 (* I73 100)))))
(set-info :major-phase |control constraints|)
(push 1)
(assert B103-F)
(set-info :status sat)
(check-sat)
(push 1)
(assert B28-F)
(set-info :status sat)
(check-sat)
(push 1)
(assert B31-F)
(set-info :status sat)
(check-sat)
(push 1)
(assert B30-F)
(set-info :status sat)
(check-sat)
(push 1)
(assert B50-F)
(set-info :status sat)
(check-sat)
(push 1)
(assert B83-F)
(set-info :status sat)
(check-sat)
(push 1)
(assert B84-F)
(set-info :status sat)
(check-sat)
(push 1)
(assert B6-F)
(set-info :status sat)
(check-sat)
(push 1)
(assert B4-F)
(set-info :status sat)
(check-sat)
(push 1)
(assert B88-F)
(set-info :status sat)
(check-sat)
(push 1)
(assert B89-F)
(set-info :status sat)
(check-sat)
(push 1)
(assert B47-F)
(set-info :status sat)
(check-sat)
(push 1)
(assert B104-F)
(set-info :status sat)
(check-sat)
(push 1)
(assert B102-F)
(set-info :status sat)
(check-sat)
(push 1)
(assert B8-F)
(set-info :status sat)
(check-sat)
(push 1)
(assert B100-F)
(set-info :status sat)
(check-sat)
(push 1)
(assert B48-F)
(set-info :status sat)
(check-sat)
(push 1)
(assert B106-F)
(set-info :status sat)
(check-sat)
(push 1)
(assert B5-F)
(set-info :status sat)
(check-sat)
(push 1)
(assert B7-F)
(set-info :status sat)
(check-sat)
(push 1)
(assert B75-F)
(set-info :status unsat)
(check-sat)
(pop 1)
(push 1)
(assert B3-F)
(set-info :status sat)
(check-sat)
(push 1)
(assert B9-F)
(set-info :status sat)
(check-sat)
(push 1)
(assert B92-F)
(set-info :status sat)
(check-sat)
(push 1)
(assert B78-F)
(set-info :status unsat)
(check-sat)
(pop 1)
(push 1)
(assert B79-F)
(set-info :status sat)
(check-sat)
(push 1)
(assert B77-F)
(set-info :status unsat)
(check-sat)
(pop 1)
(push 1)
(assert B90-F)
(set-info :status sat)
(check-sat)
(push 1)
(assert B93-F)
(set-info :status sat)
(check-sat)
(push 1)
(assert B29-F)
(set-info :status sat)
(check-sat)
(push 1)
(assert B81-F)
(set-info :status sat)
(check-sat)
(push 1)
(assert B80-F)
(set-info :status sat)
(check-sat)
(push 1)
(assert B98-F)
(set-info :status sat)
(check-sat)
(push 1)
(assert B97-F)
(set-info :status sat)
(check-sat)
(push 1)
(assert B105-F)
(set-info :status sat)
(check-sat)
(push 1)
(assert B86-F)
(set-info :status sat)
(check-sat)
(push 1)
(assert B91-F)
(set-info :status sat)
(check-sat)
(push 1)
(assert B94-F)
(set-info :status sat)
(check-sat)
(push 1)
(assert B82-F)
(set-info :status sat)
(check-sat)
(push 1)
(assert B85-F)
(set-info :status sat)
(check-sat)
(push 1)
(assert B87-F)
(set-info :status sat)
(check-sat)
(push 1)
(assert B53-F)
(set-info :status sat)
(check-sat)
(push 1)
(assert B51-F)
(set-info :status sat)
(check-sat)
(push 1)
(assert B52-F)
(set-info :status sat)
(check-sat)
(exit)

